% Logging successfully configured
%%%mzn-stat: initTime=0.002276073
%%%mzn-stat: objective=641
%%%mzn-stat: nodes=430
%%%mzn-stat: restarts=0
%%%mzn-stat: peakDepth=131
%%%mzn-stat: solveTime=0.002679374
%%%mzn-stat: variables=293
%%%mzn-stat: propagators=194
%%%mzn-stat: failures=51
%%%mzn-stat: propagations=2768
%%%mzn-stat: nogoods=51
%%%mzn-stat: numAtomicConstraintsPropagated=0
%%%mzn-stat: allDifferentNumber1TotalHallSetSize=142
%%%mzn-stat: allDifferentNumber1NumberOfConflicts=51
%%%mzn-stat: allDifferentNumber1MaxHallSetSize=17
%%%mzn-stat: allDifferentNumber1PropagationsTotal=482
%%%mzn-stat: allDifferentNumber1PropagationsThatFoundConflict=51
%%%mzn-stat: circuitNumber2PropagationsThatFoundConflict=0
%%%mzn-stat: circuitNumber2TotalFixedEdgesAtConflict=0
%%%mzn-stat: circuitNumber2NumberOfConflicts=0
%%%mzn-stat: circuitNumber2PropagationsThatPruned=7
%%%mzn-stat: circuitNumber2PropagationsTotal=276
%%%mzn-stat: AverageConflictSize=2.5686274509803924
%%%mzn-stat: NumUnitNogoodsLearned=0
%%%mzn-stat: AverageLearnedNogoodLength=2.7058823529411766
%%%mzn-stat: AverageBacktrackAmount=0
%%%mzn-stat: AverageLbd=2.6470588235294117
%%%mzn-stat: 2AutonomousSearchNumBackupCalled=114
%%%mzn-stat: 2AutonomousSearchNumPredicatesRemoved=0
%%%mzn-stat: 2AutonomousSearchNumCalls=115
%%%mzn-stat: 2AutonomousSearchNumPredicatesAdded=101
%%%mzn-stat: 2AutonomousSearchAverageSizeOfHeap=0.8782608695652174
%%%mzn-stat: 2AutonomousSearchNumAssignedPredicatesEncountered=101
%%%mzn-stat-end
maxleg = 641;
succ = array1d(1..20,[2, 3, 4, 8, 12, 7, 10, 14, 1, 11, 9, 16, 18, 19, 5, 13, 6, 20, 15, 17]);
% time elapsed: 0.92 s
----------
%%%mzn-stat: initTime=0.002276073
%%%mzn-stat: objective=612
%%%mzn-stat: nodes=677
%%%mzn-stat: restarts=0
%%%mzn-stat: peakDepth=131
%%%mzn-stat: solveTime=0.004077341
%%%mzn-stat: variables=293
%%%mzn-stat: propagators=194
%%%mzn-stat: failures=79
%%%mzn-stat: propagations=4018
%%%mzn-stat: nogoods=79
%%%mzn-stat: numAtomicConstraintsPropagated=0
%%%mzn-stat: allDifferentNumber1TotalHallSetSize=272
%%%mzn-stat: allDifferentNumber1NumberOfConflicts=79
%%%mzn-stat: allDifferentNumber1MaxHallSetSize=17
%%%mzn-stat: allDifferentNumber1PropagationsTotal=703
%%%mzn-stat: allDifferentNumber1PropagationsThatFoundConflict=79
%%%mzn-stat: circuitNumber2PropagationsThatFoundConflict=0
%%%mzn-stat: circuitNumber2TotalFixedEdgesAtConflict=0
%%%mzn-stat: circuitNumber2NumberOfConflicts=0
%%%mzn-stat: circuitNumber2PropagationsThatPruned=9
%%%mzn-stat: circuitNumber2PropagationsTotal=400
%%%mzn-stat: AverageConflictSize=3.2151898734177213
%%%mzn-stat: NumUnitNogoodsLearned=0
%%%mzn-stat: AverageLearnedNogoodLength=3.3164556962025316
%%%mzn-stat: AverageBacktrackAmount=0
%%%mzn-stat: AverageLbd=3.1645569620253164
%%%mzn-stat: 2AutonomousSearchNumBackupCalled=223
%%%mzn-stat: 2AutonomousSearchNumPredicatesRemoved=0
%%%mzn-stat: 2AutonomousSearchNumCalls=225
%%%mzn-stat: 2AutonomousSearchNumPredicatesAdded=235
%%%mzn-stat: 2AutonomousSearchAverageSizeOfHeap=1.3422222222222222
%%%mzn-stat: 2AutonomousSearchNumAssignedPredicatesEncountered=302
%%%mzn-stat-end
maxleg = 612;
succ = array1d(1..20,[2, 3, 4, 8, 15, 7, 10, 12, 11, 17, 13, 14, 16, 19, 6, 1, 18, 20, 5, 9]);
% time elapsed: 0.92 s
----------
%%%mzn-stat: initTime=0.002276073
%%%mzn-stat: objective=583
%%%mzn-stat: nodes=799
%%%mzn-stat: restarts=0
%%%mzn-stat: peakDepth=131
%%%mzn-stat: solveTime=0.004368676
%%%mzn-stat: variables=293
%%%mzn-stat: propagators=194
%%%mzn-stat: failures=81
%%%mzn-stat: propagations=4452
%%%mzn-stat: nogoods=81
%%%mzn-stat: numAtomicConstraintsPropagated=0
%%%mzn-stat: allDifferentNumber1TotalHallSetSize=276
%%%mzn-stat: allDifferentNumber1NumberOfConflicts=81
%%%mzn-stat: allDifferentNumber1MaxHallSetSize=17
%%%mzn-stat: allDifferentNumber1PropagationsTotal=747
%%%mzn-stat: allDifferentNumber1PropagationsThatFoundConflict=81
%%%mzn-stat: circuitNumber2PropagationsThatFoundConflict=0
%%%mzn-stat: circuitNumber2TotalFixedEdgesAtConflict=0
%%%mzn-stat: circuitNumber2NumberOfConflicts=0
%%%mzn-stat: circuitNumber2PropagationsThatPruned=10
%%%mzn-stat: circuitNumber2PropagationsTotal=426
%%%mzn-stat: AverageConflictSize=3.185185185185185
%%%mzn-stat: NumUnitNogoodsLearned=0
%%%mzn-stat: AverageLearnedNogoodLength=3.2839506172839505
%%%mzn-stat: AverageBacktrackAmount=0
%%%mzn-stat: AverageLbd=3.1358024691358026
%%%mzn-stat: 2AutonomousSearchNumBackupCalled=318
%%%mzn-stat: 2AutonomousSearchNumPredicatesRemoved=0
%%%mzn-stat: 2AutonomousSearchNumCalls=321
%%%mzn-stat: 2AutonomousSearchNumPredicatesAdded=238
%%%mzn-stat: 2AutonomousSearchAverageSizeOfHeap=1.5669781931464175
%%%mzn-stat: 2AutonomousSearchNumAssignedPredicatesEncountered=503
%%%mzn-stat-end
maxleg = 583;
succ = array1d(1..20,[2, 3, 4, 8, 15, 7, 10, 12, 11, 18, 13, 14, 16, 19, 17, 1, 6, 20, 5, 9]);
% time elapsed: 0.92 s
----------
==========
% time elapsed: 0.97 s
%%%mzn-stat: initTime=0.002276073
%%%mzn-stat: objective=583
%%%mzn-stat: nodes=1983
%%%mzn-stat: restarts=0
%%%mzn-stat: peakDepth=131
%%%mzn-stat: solveTime=0.058282496
%%%mzn-stat: variables=293
%%%mzn-stat: propagators=194
%%%mzn-stat: failures=1152
%%%mzn-stat: propagations=30633
%%%mzn-stat: nogoods=1152
%%%mzn-stat: numAtomicConstraintsPropagated=0
%%%mzn-stat: allDifferentNumber1TotalHallSetSize=15039
%%%mzn-stat: allDifferentNumber1NumberOfConflicts=1137
%%%mzn-stat: allDifferentNumber1MaxHallSetSize=20
%%%mzn-stat: allDifferentNumber1PropagationsTotal=4868
%%%mzn-stat: allDifferentNumber1PropagationsThatFoundConflict=1137
%%%mzn-stat: circuitNumber2PropagationsThatFoundConflict=9
%%%mzn-stat: circuitNumber2TotalFixedEdgesAtConflict=64
%%%mzn-stat: circuitNumber2NumberOfConflicts=9
%%%mzn-stat: circuitNumber2PropagationsThatPruned=600
%%%mzn-stat: circuitNumber2PropagationsTotal=2483
%%%mzn-stat: AverageConflictSize=12.32204861111111
%%%mzn-stat: NumUnitNogoodsLearned=1
%%%mzn-stat: AverageLearnedNogoodLength=12.467881944444445
%%%mzn-stat: AverageBacktrackAmount=0
%%%mzn-stat: AverageLbd=4.546875
%%%mzn-stat: 2AutonomousSearchNumBackupCalled=318
%%%mzn-stat: 2AutonomousSearchNumPredicatesRemoved=0
%%%mzn-stat: 2AutonomousSearchNumCalls=321
%%%mzn-stat: 2AutonomousSearchNumPredicatesAdded=744
%%%mzn-stat: 2AutonomousSearchAverageSizeOfHeap=1.5669781931464175
%%%mzn-stat: 2AutonomousSearchNumAssignedPredicatesEncountered=503
%%%mzn-stat-end
